50	100	100	100
30	63	93
55	90	99
75	92	17
38	24	34
17	95	59
51	42	89
29	87	97
36	47	25
28	82	95
62	64	92
42	63	96
24	10	83
9	66	12
12	2	23
25	90	54
29	40	93
56	10	4
42	26	37
99	43	93
51	14	84
37	64	13
54	25	57
10	38	59
46	12	9
28	30	57
58	60	15
20	76	90
37	8	18
69	90	26
24	81	61
47	38	20
79	79	54
91	42	49
54	96	45
84	82	3
30	7	93
37	28	62
91	58	15
62	56	12
2	4	91
77	16	22
66	70	73
32	51	53
12	37	56
30	37	92
86	59	94
36	7	58
41	2	95
62	6	62
60	55	97
